param N := 3;
param NLINKS := 6; #N*(N-1);
param MSTART := 0;

param: LINKS : capacity_P =
		[1,2]		1    	
		[1,3] 		1		
		[2,1]		1    	
		[2,3] 		1		
		[3,1]		1    	
		[3,2] 		1;
		
param gamma := 

		0	0
		1	1
		2	1
		3	1
		4	2
		5	2
		6	3;
